WARNING: for repeatability, setting FPU to use double precision
============================[ Problem Statistics ]=============================
|                                                                             |
|  Number of variables:            50                                         |
|  Number of clauses:             218                                         |
|  Parse time:                   0.00 s                                       |
|                                                                             |
============================[ Search Statistics ]==============================
| Conflicts |          ORIGINAL         |          LEARNT          | Progress |
|           |    Vars  Clauses Literals |    Limit  Clauses Lit/Cl |          |
===============================================================================
===============================================================================
restarts              : 1
conflicts             : 54             (187500 /sec)
decisions             : 71             (0.00 % random) (246528 /sec)
propagations          : 763            (2649306 /sec)
conflict literals     : 227            (19.50 % deleted)
Memory used           : 20.00 MB
CPU time              : 0.000288 s

SATISFIABLE
